%BLOCK LATTICE_CART
ang    # angstrom units
  7.848513006456     0.000000000000     0.000000000000   
  0.000000000000     5.119990971430     0.000000000000   
 -0.668455737284     0.000000000000     8.399442060442   
%ENDBLOCK LATTICE_CART

%BLOCK POSITIONS_FRAC
Zn     0.293400000000     0.206600000000     0.206600000000   
O      0.250000000000     0.250000000000     0.250000000000   
O      0.281900000000     0.218100000000     0.134000000000   
C      0.250000000000     0.250000000000     0.111300000000   
C      0.250000000000     0.250000000000     0.053800000000   
C      0.282900000000     0.217100000000     0.026900000000   
H      0.304900000000     0.195100000000     0.044800000000   
%ENDBLOCK POSITIONS_FRAC
